  8	70
 16
  0	 29	 18	 63	 38	 56	 88	 99	126	108	133	 52	 11	 81	122	141	
 26
  0	 49	 53	 24	 62	 12	132	123	 82	 94	119	 13	 23	 25	 95	  2	 93	 72	 59	 83	 30	129	 26	 96	100	141	
 18
  0	 57	  6	 76	127	 33	 41	  4	 47	 44	 74	 61	103	117	111	131	114	141	
 24
  0	  8	 70	 67	 69	 78	140	139	 46	137	 58	 14	 22	 65	 66	135	  7	 92	 84	128	116	 77	136	141	
 24
  0	 19	  9	 89	 79	 43	 34	 55	113	 50	 45	120	 27	125	 97	104	115	 60	 48	 21	130	118	 91	141	
 18
  0	  3	 64	 73	 10	134	 42	 20	 31	 80	112	 16	 40	 90	 86	110	101	141	
 10
  0	  5	 54	 37	 75	107	  1	124	 71	141	
 20
  0	 32	 36	102	 28	 35	106	 17	 98	105	 15	 87	 68	 85	 51	121	 39	138	109	141	
